p cnf 1340 2731
1 2 0
3 2 0
-1 -3 -2 0
2 -4 -5 0
4 -2 -5 0
5 -2 -4 0
4 2 5 0
-5 0
6 7 0
8 7 0
-6 -8 -7 0
-3 7 -9 0
3 -7 -9 0
9 -7 -3 0
3 7 9 0
-9 0
10 11 0
12 11 0
-10 -12 -11 0
-8 11 -13 0
8 -11 -13 0
13 -11 -8 0
8 11 13 0
-13 0
14 15 0
16 15 0
-14 -16 -15 0
-12 15 -17 0
12 -15 -17 0
17 -15 -12 0
12 15 17 0
-17 0
18 19 0
20 19 0
-18 -20 -19 0
-16 19 -21 0
16 -19 -21 0
21 -19 -16 0
16 19 21 0
-21 0
22 23 0
24 23 0
-22 -24 -23 0
-20 23 -25 0
20 -23 -25 0
25 -23 -20 0
20 23 25 0
-25 0
10 26 0
14 26 0
18 26 0
22 26 0
27 26 0
-28 0
-24 26 -29 0
24 -26 -29 0
29 -26 -24 0
24 26 29 0
-29 0
30 31 0
32 31 0
-30 -32 -31 0
31 -33 -34 0
33 -31 -34 0
34 -31 -33 0
33 31 34 0
-34 0
35 36 0
37 36 0
-35 -37 -36 0
-32 36 -38 0
32 -36 -38 0
38 -36 -32 0
32 36 38 0
-38 0
39 40 0
41 40 0
-39 -41 -40 0
-37 40 -42 0
37 -40 -42 0
42 -40 -37 0
37 40 42 0
-42 0
43 44 0
45 44 0
-43 -45 -44 0
-41 44 -46 0
41 -44 -46 0
46 -44 -41 0
41 44 46 0
-46 0
47 48 0
49 48 0
-47 -49 -48 0
-45 48 -50 0
45 -48 -50 0
50 -48 -45 0
45 48 50 0
-50 0
51 52 0
53 52 0
-51 -53 -52 0
-49 52 -54 0
49 -52 -54 0
54 -52 -49 0
49 52 54 0
-54 0
55 56 0
57 56 0
-55 -57 -56 0
-53 56 -58 0
53 -56 -58 0
58 -56 -53 0
53 56 58 0
-58 0
59 60 0
61 60 0
-59 -61 -60 0
-57 60 -62 0
57 -60 -62 0
62 -60 -57 0
57 60 62 0
-62 0
63 64 0
65 64 0
-63 -65 -64 0
-61 64 -66 0
61 -64 -66 0
66 -64 -61 0
61 64 66 0
-66 0
67 68 0
69 68 0
-67 -69 -68 0
-65 68 -70 0
65 -68 -70 0
70 -68 -65 0
65 68 70 0
-70 0
51 71 0
55 71 0
59 71 0
63 71 0
67 71 0
72 71 0
-73 0
-69 71 -74 0
69 -71 -74 0
74 -71 -69 0
69 71 74 0
-74 0
75 76 0
77 76 0
-75 -77 -76 0
76 -78 -79 0
78 -76 -79 0
79 -76 -78 0
78 76 79 0
-79 0
80 81 0
82 81 0
-80 -82 -81 0
-77 81 -83 0
77 -81 -83 0
83 -81 -77 0
77 81 83 0
-83 0
84 85 0
86 85 0
-84 -86 -85 0
-82 85 -87 0
82 -85 -87 0
87 -85 -82 0
82 85 87 0
-87 0
88 89 0
90 89 0
-88 -90 -89 0
-86 89 -91 0
86 -89 -91 0
91 -89 -86 0
86 89 91 0
-91 0
92 93 0
94 93 0
-92 -94 -93 0
-90 93 -95 0
90 -93 -95 0
95 -93 -90 0
90 93 95 0
-95 0
96 97 0
98 97 0
-96 -98 -97 0
-94 97 -99 0
94 -97 -99 0
99 -97 -94 0
94 97 99 0
-99 0
100 101 0
102 101 0
-100 -102 -101 0
-98 101 -103 0
98 -101 -103 0
103 -101 -98 0
98 101 103 0
-103 0
104 105 0
106 105 0
-104 -106 -105 0
-102 105 -107 0
102 -105 -107 0
107 -105 -102 0
102 105 107 0
-107 0
108 109 0
110 109 0
-108 -110 -109 0
-106 109 -111 0
106 -109 -111 0
111 -109 -106 0
106 109 111 0
-111 0
96 112 0
100 112 0
104 112 0
108 112 0
113 112 0
-114 0
-110 112 -115 0
110 -112 -115 0
115 -112 -110 0
110 112 115 0
-115 0
116 117 0
118 117 0
-116 -118 -117 0
117 -119 -120 0
119 -117 -120 0
120 -117 -119 0
119 117 120 0
-120 0
121 122 0
123 122 0
-121 -123 -122 0
-118 122 -124 0
118 -122 -124 0
124 -122 -118 0
118 122 124 0
-124 0
125 126 0
127 126 0
-125 -127 -126 0
-123 126 -128 0
123 -126 -128 0
128 -126 -123 0
123 126 128 0
-128 0
127 -129 0
129 -127 0
130 131 0
132 131 0
-130 -132 -131 0
131 -133 -134 0
133 -131 -134 0
134 -131 -133 0
133 131 134 0
-134 0
135 136 0
137 136 0
-135 -137 -136 0
-132 136 -138 0
132 -136 -138 0
138 -136 -132 0
132 136 138 0
-138 0
139 140 0
141 140 0
-139 -141 -140 0
-137 140 -142 0
137 -140 -142 0
142 -140 -137 0
137 140 142 0
-142 0
143 144 0
145 144 0
-143 -145 -144 0
-141 144 -146 0
141 -144 -146 0
146 -144 -141 0
141 144 146 0
-146 0
147 148 0
149 148 0
-147 -149 -148 0
-145 148 -150 0
145 -148 -150 0
150 -148 -145 0
145 148 150 0
-150 0
151 152 0
153 152 0
-151 -153 -152 0
-149 152 -154 0
149 -152 -154 0
154 -152 -149 0
149 152 154 0
-154 0
155 156 0
157 156 0
-155 -157 -156 0
-153 156 -158 0
153 -156 -158 0
158 -156 -153 0
153 156 158 0
-158 0
159 160 0
161 160 0
-159 -161 -160 0
-157 160 -162 0
157 -160 -162 0
162 -160 -157 0
157 160 162 0
-162 0
163 164 0
165 164 0
-163 -165 -164 0
-161 164 -166 0
161 -164 -166 0
166 -164 -161 0
161 164 166 0
-166 0
151 167 0
155 167 0
159 167 0
163 167 0
168 167 0
-169 0
-165 167 -170 0
165 -167 -170 0
170 -167 -165 0
165 167 170 0
-170 0
171 172 0
173 172 0
-171 -173 -172 0
172 -174 -175 0
174 -172 -175 0
175 -172 -174 0
174 172 175 0
-175 0
176 177 0
178 177 0
-176 -178 -177 0
-173 177 -179 0
173 -177 -179 0
179 -177 -173 0
173 177 179 0
-179 0
180 181 0
182 181 0
-180 -182 -181 0
-178 181 -183 0
178 -181 -183 0
183 -181 -178 0
178 181 183 0
-183 0
184 185 0
186 185 0
-184 -186 -185 0
-182 185 -187 0
182 -185 -187 0
187 -185 -182 0
182 185 187 0
-187 0
188 189 0
190 189 0
-188 -190 -189 0
-186 189 -191 0
186 -189 -191 0
191 -189 -186 0
186 189 191 0
-191 0
192 193 0
194 193 0
-192 -194 -193 0
-190 193 -195 0
190 -193 -195 0
195 -193 -190 0
190 193 195 0
-195 0
196 197 0
198 197 0
-196 -198 -197 0
-194 197 -199 0
194 -197 -199 0
199 -197 -194 0
194 197 199 0
-199 0
200 201 0
202 201 0
-200 -202 -201 0
-198 201 -203 0
198 -201 -203 0
203 -201 -198 0
198 201 203 0
-203 0
188 204 0
192 204 0
196 204 0
200 204 0
205 204 0
-206 0
-202 204 -207 0
202 -204 -207 0
207 -204 -202 0
202 204 207 0
-207 0
208 209 0
210 209 0
-208 -210 -209 0
209 -211 -212 0
211 -209 -212 0
212 -209 -211 0
211 209 212 0
-212 0
213 214 0
215 214 0
-213 -215 -214 0
-210 214 -216 0
210 -214 -216 0
216 -214 -210 0
210 214 216 0
-216 0
217 218 0
219 218 0
-217 -219 -218 0
-215 218 -220 0
215 -218 -220 0
220 -218 -215 0
215 218 220 0
-220 0
221 222 0
223 222 0
-221 -223 -222 0
-219 222 -224 0
219 -222 -224 0
224 -222 -219 0
219 222 224 0
-224 0
225 226 0
227 226 0
-225 -227 -226 0
-223 226 -228 0
223 -226 -228 0
228 -226 -223 0
223 226 228 0
-228 0
229 230 0
231 230 0
-229 -231 -230 0
-227 230 -232 0
227 -230 -232 0
232 -230 -227 0
227 230 232 0
-232 0
233 234 0
235 234 0
-233 -235 -234 0
-231 234 -236 0
231 -234 -236 0
236 -234 -231 0
231 234 236 0
-236 0
237 238 0
239 238 0
-237 -239 -238 0
-235 238 -240 0
235 -238 -240 0
240 -238 -235 0
235 238 240 0
-240 0
241 242 0
243 242 0
-241 -243 -242 0
-239 242 -244 0
239 -242 -244 0
244 -242 -239 0
239 242 244 0
-244 0
245 246 0
247 246 0
-245 -247 -246 0
-243 246 -248 0
243 -246 -248 0
248 -246 -243 0
243 246 248 0
-248 0
229 249 0
233 249 0
237 249 0
241 249 0
245 249 0
250 249 0
-251 0
-247 249 -252 0
247 -249 -252 0
252 -249 -247 0
247 249 252 0
-252 0
253 254 0
255 254 0
-253 -255 -254 0
254 -256 -257 0
256 -254 -257 0
257 -254 -256 0
256 254 257 0
-257 0
258 259 0
260 259 0
-258 -260 -259 0
-255 259 -261 0
255 -259 -261 0
261 -259 -255 0
255 259 261 0
-261 0
262 263 0
264 263 0
-262 -264 -263 0
-260 263 -265 0
260 -263 -265 0
265 -263 -260 0
260 263 265 0
-265 0
266 267 0
268 267 0
-266 -268 -267 0
-264 267 -269 0
264 -267 -269 0
269 -267 -264 0
264 267 269 0
-269 0
270 271 0
272 271 0
-270 -272 -271 0
-268 271 -273 0
268 -271 -273 0
273 -271 -268 0
268 271 273 0
-273 0
274 275 0
276 275 0
-274 -276 -275 0
-272 275 -277 0
272 -275 -277 0
277 -275 -272 0
272 275 277 0
-277 0
278 279 0
280 279 0
-278 -280 -279 0
-276 279 -281 0
276 -279 -281 0
281 -279 -276 0
276 279 281 0
-281 0
282 283 0
284 283 0
-282 -284 -283 0
-280 283 -285 0
280 -283 -285 0
285 -283 -280 0
280 283 285 0
-285 0
274 286 0
278 286 0
282 286 0
287 286 0
-288 0
-284 286 -289 0
284 -286 -289 0
289 -286 -284 0
284 286 289 0
-289 0
290 291 0
292 291 0
-290 -292 -291 0
291 -293 -294 0
293 -291 -294 0
294 -291 -293 0
293 291 294 0
-294 0
295 296 0
297 296 0
-295 -297 -296 0
-292 296 -298 0
292 -296 -298 0
298 -296 -292 0
292 296 298 0
-298 0
299 300 0
301 300 0
-299 -301 -300 0
-297 300 -302 0
297 -300 -302 0
302 -300 -297 0
297 300 302 0
-302 0
303 304 0
305 304 0
-303 -305 -304 0
-301 304 -306 0
301 -304 -306 0
306 -304 -301 0
301 304 306 0
-306 0
307 308 0
309 308 0
-307 -309 -308 0
-305 308 -310 0
305 -308 -310 0
310 -308 -305 0
305 308 310 0
-310 0
311 312 0
313 312 0
-311 -313 -312 0
-309 312 -314 0
309 -312 -314 0
314 -312 -309 0
309 312 314 0
-314 0
315 316 0
317 316 0
-315 -317 -316 0
-313 316 -318 0
313 -316 -318 0
318 -316 -313 0
313 316 318 0
-318 0
319 320 0
321 320 0
-319 -321 -320 0
-317 320 -322 0
317 -320 -322 0
322 -320 -317 0
317 320 322 0
-322 0
323 324 0
325 324 0
-323 -325 -324 0
-321 324 -326 0
321 -324 -326 0
326 -324 -321 0
321 324 326 0
-326 0
327 328 0
329 328 0
-327 -329 -328 0
-325 328 -330 0
325 -328 -330 0
330 -328 -325 0
325 328 330 0
-330 0
311 331 0
315 331 0
319 331 0
323 331 0
327 331 0
332 331 0
-333 0
-329 331 -334 0
329 -331 -334 0
334 -331 -329 0
329 331 334 0
-334 0
335 336 0
337 336 0
-335 -337 -336 0
336 -338 -339 0
338 -336 -339 0
339 -336 -338 0
338 336 339 0
-339 0
340 341 0
342 341 0
-340 -342 -341 0
-337 341 -343 0
337 -341 -343 0
343 -341 -337 0
337 341 343 0
-343 0
344 345 0
346 345 0
-344 -346 -345 0
-342 345 -347 0
342 -345 -347 0
347 -345 -342 0
342 345 347 0
-347 0
348 349 0
350 349 0
-348 -350 -349 0
-346 349 -351 0
346 -349 -351 0
351 -349 -346 0
346 349 351 0
-351 0
352 353 0
354 353 0
-352 -354 -353 0
-350 353 -355 0
350 -353 -355 0
355 -353 -350 0
350 353 355 0
-355 0
356 357 0
358 357 0
-356 -358 -357 0
-354 357 -359 0
354 -357 -359 0
359 -357 -354 0
354 357 359 0
-359 0
360 361 0
362 361 0
-360 -362 -361 0
-358 361 -363 0
358 -361 -363 0
363 -361 -358 0
358 361 363 0
-363 0
364 365 0
366 365 0
-364 -366 -365 0
-362 365 -367 0
362 -365 -367 0
367 -365 -362 0
362 365 367 0
-367 0
368 369 0
370 369 0
-368 -370 -369 0
-366 369 -371 0
366 -369 -371 0
371 -369 -366 0
366 369 371 0
-371 0
352 372 0
356 372 0
360 372 0
364 372 0
368 372 0
373 372 0
-374 0
-370 372 -375 0
370 -372 -375 0
375 -372 -370 0
370 372 375 0
-375 0
376 377 0
378 377 0
-376 -378 -377 0
-379 377 -380 0
379 -377 -380 0
380 -377 -379 0
379 377 380 0
-380 0
381 382 0
383 382 0
-381 -383 -382 0
-378 382 -384 0
378 -382 -384 0
384 -382 -378 0
378 382 384 0
-384 0
385 386 0
387 386 0
-385 -387 -386 0
-383 386 -388 0
383 -386 -388 0
388 -386 -383 0
383 386 388 0
-388 0
389 390 0
391 390 0
-389 -391 -390 0
-387 390 -392 0
387 -390 -392 0
392 -390 -387 0
387 390 392 0
-392 0
393 394 0
395 394 0
-393 -395 -394 0
-391 394 -396 0
391 -394 -396 0
396 -394 -391 0
391 394 396 0
-396 0
397 398 0
399 398 0
-397 -399 -398 0
-395 398 -400 0
395 -398 -400 0
400 -398 -395 0
395 398 400 0
-400 0
401 402 0
403 402 0
-401 -403 -402 0
-399 402 -404 0
399 -402 -404 0
404 -402 -399 0
399 402 404 0
-404 0
405 406 0
407 406 0
-405 -407 -406 0
-403 406 -408 0
403 -406 -408 0
408 -406 -403 0
403 406 408 0
-408 0
393 409 0
397 409 0
401 409 0
405 409 0
410 409 0
-411 0
-407 409 -412 0
407 -409 -412 0
412 -409 -407 0
407 409 412 0
-412 0
413 414 0
415 414 0
-413 -415 -414 0
-416 414 -417 0
416 -414 -417 0
417 -414 -416 0
416 414 417 0
-417 0
418 419 0
420 419 0
-418 -420 -419 0
-415 419 -421 0
415 -419 -421 0
421 -419 -415 0
415 419 421 0
-421 0
422 423 0
424 423 0
-422 -424 -423 0
-420 423 -425 0
420 -423 -425 0
425 -423 -420 0
420 423 425 0
-425 0
426 427 0
428 427 0
-426 -428 -427 0
-424 427 -429 0
424 -427 -429 0
429 -427 -424 0
424 427 429 0
-429 0
430 431 0
432 431 0
-430 -432 -431 0
-428 431 -433 0
428 -431 -433 0
433 -431 -428 0
428 431 433 0
-433 0
434 435 0
436 435 0
-434 -436 -435 0
-432 435 -437 0
432 -435 -437 0
437 -435 -432 0
432 435 437 0
-437 0
438 439 0
440 439 0
-438 -440 -439 0
-436 439 -441 0
436 -439 -441 0
441 -439 -436 0
436 439 441 0
-441 0
442 443 0
444 443 0
-442 -444 -443 0
-440 443 -445 0
440 -443 -445 0
445 -443 -440 0
440 443 445 0
-445 0
446 447 0
448 447 0
-446 -448 -447 0
-444 447 -449 0
444 -447 -449 0
449 -447 -444 0
444 447 449 0
-449 0
450 451 0
452 451 0
-450 -452 -451 0
-448 451 -453 0
448 -451 -453 0
453 -451 -448 0
448 451 453 0
-453 0
434 454 0
438 454 0
442 454 0
446 454 0
450 454 0
455 454 0
-456 0
-452 454 -457 0
452 -454 -457 0
457 -454 -452 0
452 454 457 0
-457 0
458 459 0
460 459 0
-458 -460 -459 0
-461 459 -462 0
461 -459 -462 0
462 -459 -461 0
461 459 462 0
-462 0
463 464 0
465 464 0
-463 -465 -464 0
-460 464 -466 0
460 -464 -466 0
466 -464 -460 0
460 464 466 0
-466 0
467 468 0
469 468 0
-467 -469 -468 0
-465 468 -470 0
465 -468 -470 0
470 -468 -465 0
465 468 470 0
-470 0
471 472 0
473 472 0
-471 -473 -472 0
-469 472 -474 0
469 -472 -474 0
474 -472 -469 0
469 472 474 0
-474 0
475 476 0
477 476 0
-475 -477 -476 0
-473 476 -478 0
473 -476 -478 0
478 -476 -473 0
473 476 478 0
-478 0
479 480 0
481 480 0
-479 -481 -480 0
-477 480 -482 0
477 -480 -482 0
482 -480 -477 0
477 480 482 0
-482 0
483 484 0
485 484 0
-483 -485 -484 0
-481 484 -486 0
481 -484 -486 0
486 -484 -481 0
481 484 486 0
-486 0
487 488 0
489 488 0
-487 -489 -488 0
-485 488 -490 0
485 -488 -490 0
490 -488 -485 0
485 488 490 0
-490 0
491 492 0
493 492 0
-491 -493 -492 0
-489 492 -494 0
489 -492 -494 0
494 -492 -489 0
489 492 494 0
-494 0
495 496 0
497 496 0
-495 -497 -496 0
-493 496 -498 0
493 -496 -498 0
498 -496 -493 0
493 496 498 0
-498 0
479 499 0
483 499 0
487 499 0
491 499 0
495 499 0
500 499 0
-501 0
-497 499 -502 0
497 -499 -502 0
502 -499 -497 0
497 499 502 0
-502 0
503 504 0
505 504 0
-503 -505 -504 0
-506 504 -507 0
506 -504 -507 0
507 -504 -506 0
506 504 507 0
-507 0
508 509 0
510 509 0
-508 -510 -509 0
-505 509 -511 0
505 -509 -511 0
511 -509 -505 0
505 509 511 0
-511 0
512 513 0
514 513 0
-512 -514 -513 0
-510 513 -515 0
510 -513 -515 0
515 -513 -510 0
510 513 515 0
-515 0
516 517 0
518 517 0
-516 -518 -517 0
-514 517 -519 0
514 -517 -519 0
519 -517 -514 0
514 517 519 0
-519 0
520 521 0
522 521 0
-520 -522 -521 0
-518 521 -523 0
518 -521 -523 0
523 -521 -518 0
518 521 523 0
-523 0
524 525 0
526 525 0
-524 -526 -525 0
-522 525 -527 0
522 -525 -527 0
527 -525 -522 0
522 525 527 0
-527 0
528 529 0
530 529 0
-528 -530 -529 0
-526 529 -531 0
526 -529 -531 0
531 -529 -526 0
526 529 531 0
-531 0
520 532 0
524 532 0
528 532 0
533 532 0
-534 0
-530 532 -535 0
530 -532 -535 0
535 -532 -530 0
530 532 535 0
-535 0
536 537 0
538 537 0
-536 -538 -537 0
-539 537 -540 0
539 -537 -540 0
540 -537 -539 0
539 537 540 0
-540 0
541 542 0
543 542 0
-541 -543 -542 0
-538 542 -544 0
538 -542 -544 0
544 -542 -538 0
538 542 544 0
-544 0
545 546 0
547 546 0
-545 -547 -546 0
-543 546 -548 0
543 -546 -548 0
548 -546 -543 0
543 546 548 0
-548 0
549 550 0
551 550 0
-549 -551 -550 0
-547 550 -552 0
547 -550 -552 0
552 -550 -547 0
547 550 552 0
-552 0
553 554 0
555 554 0
-553 -555 -554 0
-551 554 -556 0
551 -554 -556 0
556 -554 -551 0
551 554 556 0
-556 0
545 557 0
549 557 0
553 557 0
558 557 0
-559 0
-555 557 -560 0
555 -557 -560 0
560 -557 -555 0
555 557 560 0
-560 0
561 562 0
563 562 0
-561 -563 -562 0
-564 562 -565 0
564 -562 -565 0
565 -562 -564 0
564 562 565 0
-565 0
566 567 0
568 567 0
-566 -568 -567 0
-563 567 -569 0
563 -567 -569 0
569 -567 -563 0
563 567 569 0
-569 0
570 571 0
572 571 0
-570 -572 -571 0
-568 571 -573 0
568 -571 -573 0
573 -571 -568 0
568 571 573 0
-573 0
574 575 0
576 575 0
-574 -576 -575 0
-572 575 -577 0
572 -575 -577 0
577 -575 -572 0
572 575 577 0
-577 0
578 579 0
580 579 0
-578 -580 -579 0
-576 579 -581 0
576 -579 -581 0
581 -579 -576 0
576 579 581 0
-581 0
582 583 0
584 583 0
-582 -584 -583 0
-580 583 -585 0
580 -583 -585 0
585 -583 -580 0
580 583 585 0
-585 0
586 587 0
588 587 0
-586 -588 -587 0
-584 587 -589 0
584 -587 -589 0
589 -587 -584 0
584 587 589 0
-589 0
590 591 0
592 591 0
-590 -592 -591 0
-588 591 -593 0
588 -591 -593 0
593 -591 -588 0
588 591 593 0
-593 0
594 595 0
596 595 0
-594 -596 -595 0
-592 595 -597 0
592 -595 -597 0
597 -595 -592 0
592 595 597 0
-597 0
598 599 0
600 599 0
-598 -600 -599 0
-596 599 -601 0
596 -599 -601 0
601 -599 -596 0
596 599 601 0
-601 0
582 602 0
586 602 0
590 602 0
594 602 0
598 602 0
603 602 0
-604 0
-600 602 -605 0
600 -602 -605 0
605 -602 -600 0
600 602 605 0
-605 0
606 607 0
608 607 0
-606 -608 -607 0
-609 607 -610 0
609 -607 -610 0
610 -607 -609 0
609 607 610 0
-610 0
611 612 0
613 612 0
-611 -613 -612 0
-608 612 -614 0
608 -612 -614 0
614 -612 -608 0
608 612 614 0
-614 0
615 616 0
617 616 0
-615 -617 -616 0
-613 616 -618 0
613 -616 -618 0
618 -616 -613 0
613 616 618 0
-618 0
619 620 0
621 620 0
-619 -621 -620 0
-617 620 -622 0
617 -620 -622 0
622 -620 -617 0
617 620 622 0
-622 0
623 624 0
625 624 0
-623 -625 -624 0
-621 624 -626 0
621 -624 -626 0
626 -624 -621 0
621 624 626 0
-626 0
627 628 0
629 628 0
-627 -629 -628 0
-625 628 -630 0
625 -628 -630 0
630 -628 -625 0
625 628 630 0
-630 0
631 632 0
633 632 0
-631 -633 -632 0
-629 632 -634 0
629 -632 -634 0
634 -632 -629 0
629 632 634 0
-634 0
635 636 0
637 636 0
-635 -637 -636 0
-633 636 -638 0
633 -636 -638 0
638 -636 -633 0
633 636 638 0
-638 0
639 640 0
641 640 0
-639 -641 -640 0
-637 640 -642 0
637 -640 -642 0
642 -640 -637 0
637 640 642 0
-642 0
623 643 0
627 643 0
631 643 0
635 643 0
639 643 0
644 643 0
-645 0
-641 643 -646 0
641 -643 -646 0
646 -643 -641 0
641 643 646 0
-646 0
647 648 0
649 648 0
-647 -649 -648 0
-650 648 -651 0
650 -648 -651 0
651 -648 -650 0
650 648 651 0
-651 0
652 653 0
654 653 0
-652 -654 -653 0
-649 653 -655 0
649 -653 -655 0
655 -653 -649 0
649 653 655 0
-655 0
656 657 0
658 657 0
-656 -658 -657 0
-654 657 -659 0
654 -657 -659 0
659 -657 -654 0
654 657 659 0
-659 0
660 661 0
662 661 0
-660 -662 -661 0
-658 661 -663 0
658 -661 -663 0
663 -661 -658 0
658 661 663 0
-663 0
664 665 0
666 665 0
-664 -666 -665 0
-662 665 -667 0
662 -665 -667 0
667 -665 -662 0
662 665 667 0
-667 0
668 669 0
670 669 0
-668 -670 -669 0
-666 669 -671 0
666 -669 -671 0
671 -669 -666 0
666 669 671 0
-671 0
672 673 0
674 673 0
-672 -674 -673 0
-670 673 -675 0
670 -673 -675 0
675 -673 -670 0
670 673 675 0
-675 0
676 677 0
678 677 0
-676 -678 -677 0
-674 677 -679 0
674 -677 -679 0
679 -677 -674 0
674 677 679 0
-679 0
680 681 0
682 681 0
-680 -682 -681 0
-678 681 -683 0
678 -681 -683 0
683 -681 -678 0
678 681 683 0
-683 0
684 685 0
686 685 0
-684 -686 -685 0
-682 685 -687 0
682 -685 -687 0
687 -685 -682 0
682 685 687 0
-687 0
688 689 0
690 689 0
-688 -690 -689 0
-686 689 -691 0
686 -689 -691 0
691 -689 -686 0
686 689 691 0
-691 0
672 692 0
676 692 0
680 692 0
684 692 0
688 692 0
693 692 0
-694 0
-690 692 -695 0
690 -692 -695 0
695 -692 -690 0
690 692 695 0
-695 0
696 697 0
698 697 0
-696 -698 -697 0
-699 697 -700 0
699 -697 -700 0
700 -697 -699 0
699 697 700 0
-700 0
701 702 0
703 702 0
-701 -703 -702 0
-698 702 -704 0
698 -702 -704 0
704 -702 -698 0
698 702 704 0
-704 0
705 706 0
707 706 0
-705 -707 -706 0
-703 706 -708 0
703 -706 -708 0
708 -706 -703 0
703 706 708 0
-708 0
709 710 0
711 710 0
-709 -711 -710 0
-707 710 -712 0
707 -710 -712 0
712 -710 -707 0
707 710 712 0
-712 0
713 714 0
715 714 0
-713 -715 -714 0
-711 714 -716 0
711 -714 -716 0
716 -714 -711 0
711 714 716 0
-716 0
717 718 0
719 718 0
-717 -719 -718 0
-715 718 -720 0
715 -718 -720 0
720 -718 -715 0
715 718 720 0
-720 0
721 722 0
723 722 0
-721 -723 -722 0
-719 722 -724 0
719 -722 -724 0
724 -722 -719 0
719 722 724 0
-724 0
725 726 0
727 726 0
-725 -727 -726 0
-723 726 -728 0
723 -726 -728 0
728 -726 -723 0
723 726 728 0
-728 0
729 730 0
731 730 0
-729 -731 -730 0
-727 730 -732 0
727 -730 -732 0
732 -730 -727 0
727 730 732 0
-732 0
721 733 0
725 733 0
729 733 0
734 733 0
-735 0
-731 733 -736 0
731 -733 -736 0
736 -733 -731 0
731 733 736 0
-736 0
737 738 0
739 738 0
-737 -739 -738 0
-740 738 -741 0
740 -738 -741 0
741 -738 -740 0
740 738 741 0
-741 0
742 743 0
744 743 0
-742 -744 -743 0
-739 743 -745 0
739 -743 -745 0
745 -743 -739 0
739 743 745 0
-745 0
746 747 0
748 747 0
-746 -748 -747 0
-744 747 -749 0
744 -747 -749 0
749 -747 -744 0
744 747 749 0
-749 0
750 751 0
752 751 0
-750 -752 -751 0
-748 751 -753 0
748 -751 -753 0
753 -751 -748 0
748 751 753 0
-753 0
754 755 0
756 755 0
-754 -756 -755 0
-752 755 -757 0
752 -755 -757 0
757 -755 -752 0
752 755 757 0
-757 0
758 759 0
760 759 0
-758 -760 -759 0
-756 759 -761 0
756 -759 -761 0
761 -759 -756 0
756 759 761 0
-761 0
762 763 0
764 763 0
-762 -764 -763 0
-760 763 -765 0
760 -763 -765 0
765 -763 -760 0
760 763 765 0
-765 0
766 767 0
768 767 0
-766 -768 -767 0
-764 767 -769 0
764 -767 -769 0
769 -767 -764 0
764 767 769 0
-769 0
758 770 0
762 770 0
766 770 0
771 770 0
-772 0
-768 770 -773 0
768 -770 -773 0
773 -770 -768 0
768 770 773 0
-773 0
774 -775 0
776 774 0
775 -776 -774 0
1 -774 0
-1 774 0
777 -778 0
779 777 0
778 -779 -777 0
6 -777 0
-6 777 0
780 -781 0
782 780 0
781 -782 -780 0
10 -780 0
-10 780 0
783 -784 0
785 783 0
784 -785 -783 0
14 -783 0
-14 783 0
786 -787 0
788 786 0
787 -788 -786 0
18 -786 0
-18 786 0
789 -790 0
791 789 0
790 -791 -789 0
22 -789 0
-22 789 0
792 -793 0
794 792 0
793 -794 -792 0
27 -792 0
-27 792 0
795 -796 0
797 795 0
796 -797 -795 0
30 -795 0
-30 795 0
798 -799 0
800 798 0
799 -800 -798 0
35 -798 0
-35 798 0
801 -802 0
803 801 0
802 -803 -801 0
39 -801 0
-39 801 0
804 -805 0
806 804 0
805 -806 -804 0
43 -804 0
-43 804 0
807 -808 0
809 807 0
808 -809 -807 0
47 -807 0
-47 807 0
810 -811 0
812 810 0
811 -812 -810 0
51 -810 0
-51 810 0
813 -814 0
815 813 0
814 -815 -813 0
55 -813 0
-55 813 0
816 -817 0
818 816 0
817 -818 -816 0
59 -816 0
-59 816 0
819 -820 0
821 819 0
820 -821 -819 0
63 -819 0
-63 819 0
822 -823 0
824 822 0
823 -824 -822 0
67 -822 0
-67 822 0
825 -826 0
827 825 0
826 -827 -825 0
72 -825 0
-72 825 0
828 -829 0
830 828 0
829 -830 -828 0
75 -828 0
-75 828 0
831 -832 0
833 831 0
832 -833 -831 0
80 -831 0
-80 831 0
834 -835 0
836 834 0
835 -836 -834 0
84 -834 0
-84 834 0
837 -838 0
839 837 0
838 -839 -837 0
88 -837 0
-88 837 0
840 -841 0
842 840 0
841 -842 -840 0
92 -840 0
-92 840 0
843 -844 0
845 843 0
844 -845 -843 0
96 -843 0
-96 843 0
846 -847 0
848 846 0
847 -848 -846 0
100 -846 0
-100 846 0
849 -850 0
851 849 0
850 -851 -849 0
104 -849 0
-104 849 0
852 -853 0
854 852 0
853 -854 -852 0
108 -852 0
-108 852 0
855 -856 0
857 855 0
856 -857 -855 0
113 -855 0
-113 855 0
858 -859 0
860 858 0
859 -860 -858 0
116 -858 0
-116 858 0
861 -862 0
863 861 0
862 -863 -861 0
121 -861 0
-121 861 0
864 -865 0
866 864 0
865 -866 -864 0
125 -864 0
-125 864 0
867 -868 0
869 867 0
868 -869 -867 0
129 -867 0
-129 867 0
870 -871 0
872 870 0
871 -872 -870 0
130 -870 0
-130 870 0
873 -874 0
875 873 0
874 -875 -873 0
135 -873 0
-135 873 0
876 -877 0
878 876 0
877 -878 -876 0
139 -876 0
-139 876 0
879 -880 0
881 879 0
880 -881 -879 0
143 -879 0
-143 879 0
882 -883 0
884 882 0
883 -884 -882 0
147 -882 0
-147 882 0
885 -886 0
887 885 0
886 -887 -885 0
151 -885 0
-151 885 0
888 -889 0
890 888 0
889 -890 -888 0
155 -888 0
-155 888 0
891 -892 0
893 891 0
892 -893 -891 0
159 -891 0
-159 891 0
894 -895 0
896 894 0
895 -896 -894 0
163 -894 0
-163 894 0
897 -898 0
899 897 0
898 -899 -897 0
168 -897 0
-168 897 0
900 -901 0
902 900 0
901 -902 -900 0
171 -900 0
-171 900 0
903 -904 0
905 903 0
904 -905 -903 0
176 -903 0
-176 903 0
906 -907 0
908 906 0
907 -908 -906 0
180 -906 0
-180 906 0
909 -910 0
911 909 0
910 -911 -909 0
184 -909 0
-184 909 0
912 -913 0
914 912 0
913 -914 -912 0
188 -912 0
-188 912 0
915 -916 0
917 915 0
916 -917 -915 0
192 -915 0
-192 915 0
918 -919 0
920 918 0
919 -920 -918 0
196 -918 0
-196 918 0
921 -922 0
923 921 0
922 -923 -921 0
200 -921 0
-200 921 0
924 -925 0
926 924 0
925 -926 -924 0
205 -924 0
-205 924 0
927 -928 0
929 927 0
928 -929 -927 0
208 -927 0
-208 927 0
930 -931 0
932 930 0
931 -932 -930 0
213 -930 0
-213 930 0
933 -934 0
935 933 0
934 -935 -933 0
217 -933 0
-217 933 0
936 -937 0
938 936 0
937 -938 -936 0
221 -936 0
-221 936 0
939 -940 0
941 939 0
940 -941 -939 0
225 -939 0
-225 939 0
942 -943 0
944 942 0
943 -944 -942 0
229 -942 0
-229 942 0
945 -946 0
947 945 0
946 -947 -945 0
233 -945 0
-233 945 0
948 -949 0
950 948 0
949 -950 -948 0
237 -948 0
-237 948 0
951 -952 0
953 951 0
952 -953 -951 0
241 -951 0
-241 951 0
954 -955 0
956 954 0
955 -956 -954 0
245 -954 0
-245 954 0
957 -958 0
959 957 0
958 -959 -957 0
250 -957 0
-250 957 0
960 -961 0
962 960 0
961 -962 -960 0
253 -960 0
-253 960 0
963 -964 0
965 963 0
964 -965 -963 0
258 -963 0
-258 963 0
966 -967 0
968 966 0
967 -968 -966 0
262 -966 0
-262 966 0
969 -970 0
971 969 0
970 -971 -969 0
266 -969 0
-266 969 0
972 -973 0
974 972 0
973 -974 -972 0
270 -972 0
-270 972 0
975 -976 0
977 975 0
976 -977 -975 0
274 -975 0
-274 975 0
978 -979 0
980 978 0
979 -980 -978 0
278 -978 0
-278 978 0
981 -982 0
983 981 0
982 -983 -981 0
282 -981 0
-282 981 0
984 -985 0
986 984 0
985 -986 -984 0
287 -984 0
-287 984 0
987 -988 0
989 987 0
988 -989 -987 0
290 -987 0
-290 987 0
990 -991 0
992 990 0
991 -992 -990 0
295 -990 0
-295 990 0
993 -994 0
995 993 0
994 -995 -993 0
299 -993 0
-299 993 0
996 -997 0
998 996 0
997 -998 -996 0
303 -996 0
-303 996 0
999 -1000 0
1001 999 0
1000 -1001 -999 0
307 -999 0
-307 999 0
1002 -1003 0
1004 1002 0
1003 -1004 -1002 0
311 -1002 0
-311 1002 0
1005 -1006 0
1007 1005 0
1006 -1007 -1005 0
315 -1005 0
-315 1005 0
1008 -1009 0
1010 1008 0
1009 -1010 -1008 0
319 -1008 0
-319 1008 0
1011 -1012 0
1013 1011 0
1012 -1013 -1011 0
323 -1011 0
-323 1011 0
1014 -1015 0
1016 1014 0
1015 -1016 -1014 0
327 -1014 0
-327 1014 0
1017 -1018 0
1019 1017 0
1018 -1019 -1017 0
332 -1017 0
-332 1017 0
1020 -1021 0
1022 1020 0
1021 -1022 -1020 0
335 -1020 0
-335 1020 0
1023 -1024 0
1025 1023 0
1024 -1025 -1023 0
340 -1023 0
-340 1023 0
1026 -1027 0
1028 1026 0
1027 -1028 -1026 0
344 -1026 0
-344 1026 0
1029 -1030 0
1031 1029 0
1030 -1031 -1029 0
348 -1029 0
-348 1029 0
1032 -1033 0
1034 1032 0
1033 -1034 -1032 0
352 -1032 0
-352 1032 0
1035 -1036 0
1037 1035 0
1036 -1037 -1035 0
356 -1035 0
-356 1035 0
1038 -1039 0
1040 1038 0
1039 -1040 -1038 0
360 -1038 0
-360 1038 0
1041 -1042 0
1043 1041 0
1042 -1043 -1041 0
364 -1041 0
-364 1041 0
1044 -1045 0
1046 1044 0
1045 -1046 -1044 0
368 -1044 0
-368 1044 0
1047 -1048 0
1049 1047 0
1048 -1049 -1047 0
373 -1047 0
-373 1047 0
1050 -1051 0
1052 1050 0
1051 -1052 -1050 0
376 -1050 0
-376 1050 0
1053 -1054 0
1055 1053 0
1054 -1055 -1053 0
381 -1053 0
-381 1053 0
1056 -1057 0
1058 1056 0
1057 -1058 -1056 0
385 -1056 0
-385 1056 0
1059 -1060 0
1061 1059 0
1060 -1061 -1059 0
389 -1059 0
-389 1059 0
1062 -1063 0
1064 1062 0
1063 -1064 -1062 0
393 -1062 0
-393 1062 0
1065 -1066 0
1067 1065 0
1066 -1067 -1065 0
397 -1065 0
-397 1065 0
1068 -1069 0
1070 1068 0
1069 -1070 -1068 0
401 -1068 0
-401 1068 0
1071 -1072 0
1073 1071 0
1072 -1073 -1071 0
405 -1071 0
-405 1071 0
1074 -1075 0
1076 1074 0
1075 -1076 -1074 0
410 -1074 0
-410 1074 0
1077 -1078 0
1079 1077 0
1078 -1079 -1077 0
413 -1077 0
-413 1077 0
1080 -1081 0
1082 1080 0
1081 -1082 -1080 0
418 -1080 0
-418 1080 0
1083 -1084 0
1085 1083 0
1084 -1085 -1083 0
422 -1083 0
-422 1083 0
1086 -1087 0
1088 1086 0
1087 -1088 -1086 0
426 -1086 0
-426 1086 0
1089 -1090 0
1091 1089 0
1090 -1091 -1089 0
430 -1089 0
-430 1089 0
1092 -1093 0
1094 1092 0
1093 -1094 -1092 0
434 -1092 0
-434 1092 0
1095 -1096 0
1097 1095 0
1096 -1097 -1095 0
438 -1095 0
-438 1095 0
1098 -1099 0
1100 1098 0
1099 -1100 -1098 0
442 -1098 0
-442 1098 0
1101 -1102 0
1103 1101 0
1102 -1103 -1101 0
446 -1101 0
-446 1101 0
1104 -1105 0
1106 1104 0
1105 -1106 -1104 0
450 -1104 0
-450 1104 0
1107 -1108 0
1109 1107 0
1108 -1109 -1107 0
455 -1107 0
-455 1107 0
1110 -1111 0
1112 1110 0
1111 -1112 -1110 0
458 -1110 0
-458 1110 0
1113 -1114 0
1115 1113 0
1114 -1115 -1113 0
463 -1113 0
-463 1113 0
1116 -1117 0
1118 1116 0
1117 -1118 -1116 0
467 -1116 0
-467 1116 0
1119 -1120 0
1121 1119 0
1120 -1121 -1119 0
471 -1119 0
-471 1119 0
1122 -1123 0
1124 1122 0
1123 -1124 -1122 0
475 -1122 0
-475 1122 0
1125 -1126 0
1127 1125 0
1126 -1127 -1125 0
479 -1125 0
-479 1125 0
1128 -1129 0
1130 1128 0
1129 -1130 -1128 0
483 -1128 0
-483 1128 0
1131 -1132 0
1133 1131 0
1132 -1133 -1131 0
487 -1131 0
-487 1131 0
1134 -1135 0
1136 1134 0
1135 -1136 -1134 0
491 -1134 0
-491 1134 0
1137 -1138 0
1139 1137 0
1138 -1139 -1137 0
495 -1137 0
-495 1137 0
1140 -1141 0
1142 1140 0
1141 -1142 -1140 0
500 -1140 0
-500 1140 0
1143 -1144 0
1145 1143 0
1144 -1145 -1143 0
503 -1143 0
-503 1143 0
1146 -1147 0
1148 1146 0
1147 -1148 -1146 0
508 -1146 0
-508 1146 0
1149 -1150 0
1151 1149 0
1150 -1151 -1149 0
512 -1149 0
-512 1149 0
1152 -1153 0
1154 1152 0
1153 -1154 -1152 0
516 -1152 0
-516 1152 0
1155 -1156 0
1157 1155 0
1156 -1157 -1155 0
520 -1155 0
-520 1155 0
1158 -1159 0
1160 1158 0
1159 -1160 -1158 0
524 -1158 0
-524 1158 0
1161 -1162 0
1163 1161 0
1162 -1163 -1161 0
528 -1161 0
-528 1161 0
1164 -1165 0
1166 1164 0
1165 -1166 -1164 0
533 -1164 0
-533 1164 0
1167 -1168 0
1169 1167 0
1168 -1169 -1167 0
536 -1167 0
-536 1167 0
1170 -1171 0
1172 1170 0
1171 -1172 -1170 0
541 -1170 0
-541 1170 0
1173 -1174 0
1175 1173 0
1174 -1175 -1173 0
545 -1173 0
-545 1173 0
1176 -1177 0
1178 1176 0
1177 -1178 -1176 0
549 -1176 0
-549 1176 0
1179 -1180 0
1181 1179 0
1180 -1181 -1179 0
553 -1179 0
-553 1179 0
1182 -1183 0
1184 1182 0
1183 -1184 -1182 0
558 -1182 0
-558 1182 0
1185 -1186 0
1187 1185 0
1186 -1187 -1185 0
561 -1185 0
-561 1185 0
1188 -1189 0
1190 1188 0
1189 -1190 -1188 0
566 -1188 0
-566 1188 0
1191 -1192 0
1193 1191 0
1192 -1193 -1191 0
570 -1191 0
-570 1191 0
1194 -1195 0
1196 1194 0
1195 -1196 -1194 0
574 -1194 0
-574 1194 0
1197 -1198 0
1199 1197 0
1198 -1199 -1197 0
578 -1197 0
-578 1197 0
1200 -1201 0
1202 1200 0
1201 -1202 -1200 0
582 -1200 0
-582 1200 0
1203 -1204 0
1205 1203 0
1204 -1205 -1203 0
586 -1203 0
-586 1203 0
1206 -1207 0
1208 1206 0
1207 -1208 -1206 0
590 -1206 0
-590 1206 0
1209 -1210 0
1211 1209 0
1210 -1211 -1209 0
594 -1209 0
-594 1209 0
1212 -1213 0
1214 1212 0
1213 -1214 -1212 0
598 -1212 0
-598 1212 0
1215 -1216 0
1217 1215 0
1216 -1217 -1215 0
603 -1215 0
-603 1215 0
1218 -1219 0
1220 1218 0
1219 -1220 -1218 0
606 -1218 0
-606 1218 0
1221 -1222 0
1223 1221 0
1222 -1223 -1221 0
611 -1221 0
-611 1221 0
1224 -1225 0
1226 1224 0
1225 -1226 -1224 0
615 -1224 0
-615 1224 0
1227 -1228 0
1229 1227 0
1228 -1229 -1227 0
619 -1227 0
-619 1227 0
1230 -1231 0
1232 1230 0
1231 -1232 -1230 0
623 -1230 0
-623 1230 0
1233 -1234 0
1235 1233 0
1234 -1235 -1233 0
627 -1233 0
-627 1233 0
1236 -1237 0
1238 1236 0
1237 -1238 -1236 0
631 -1236 0
-631 1236 0
1239 -1240 0
1241 1239 0
1240 -1241 -1239 0
635 -1239 0
-635 1239 0
1242 -1243 0
1244 1242 0
1243 -1244 -1242 0
639 -1242 0
-639 1242 0
1245 -1246 0
1247 1245 0
1246 -1247 -1245 0
644 -1245 0
-644 1245 0
1248 -1249 0
1250 1248 0
1249 -1250 -1248 0
647 -1248 0
-647 1248 0
1251 -1252 0
1253 1251 0
1252 -1253 -1251 0
652 -1251 0
-652 1251 0
1254 -1255 0
1256 1254 0
1255 -1256 -1254 0
656 -1254 0
-656 1254 0
1257 -1258 0
1259 1257 0
1258 -1259 -1257 0
660 -1257 0
-660 1257 0
1260 -1261 0
1262 1260 0
1261 -1262 -1260 0
664 -1260 0
-664 1260 0
1263 -1264 0
1265 1263 0
1264 -1265 -1263 0
668 -1263 0
-668 1263 0
1266 -1267 0
1268 1266 0
1267 -1268 -1266 0
672 -1266 0
-672 1266 0
1269 -1270 0
1271 1269 0
1270 -1271 -1269 0
676 -1269 0
-676 1269 0
1272 -1273 0
1274 1272 0
1273 -1274 -1272 0
680 -1272 0
-680 1272 0
1275 -1276 0
1277 1275 0
1276 -1277 -1275 0
684 -1275 0
-684 1275 0
1278 -1279 0
1280 1278 0
1279 -1280 -1278 0
688 -1278 0
-688 1278 0
1281 -1282 0
1283 1281 0
1282 -1283 -1281 0
693 -1281 0
-693 1281 0
1284 -1285 0
1286 1284 0
1285 -1286 -1284 0
696 -1284 0
-696 1284 0
1287 -1288 0
1289 1287 0
1288 -1289 -1287 0
701 -1287 0
-701 1287 0
1290 -1291 0
1292 1290 0
1291 -1292 -1290 0
705 -1290 0
-705 1290 0
1293 -1294 0
1295 1293 0
1294 -1295 -1293 0
709 -1293 0
-709 1293 0
1296 -1297 0
1298 1296 0
1297 -1298 -1296 0
713 -1296 0
-713 1296 0
1299 -1300 0
1301 1299 0
1300 -1301 -1299 0
717 -1299 0
-717 1299 0
1302 -1303 0
1304 1302 0
1303 -1304 -1302 0
721 -1302 0
-721 1302 0
1305 -1306 0
1307 1305 0
1306 -1307 -1305 0
725 -1305 0
-725 1305 0
1308 -1309 0
1310 1308 0
1309 -1310 -1308 0
729 -1308 0
-729 1308 0
1311 -1312 0
1313 1311 0
1312 -1313 -1311 0
734 -1311 0
-734 1311 0
1314 -1315 0
1316 1314 0
1315 -1316 -1314 0
737 -1314 0
-737 1314 0
1317 -1318 0
1319 1317 0
1318 -1319 -1317 0
742 -1317 0
-742 1317 0
1320 -1321 0
1322 1320 0
1321 -1322 -1320 0
746 -1320 0
-746 1320 0
1323 -1324 0
1325 1323 0
1324 -1325 -1323 0
750 -1323 0
-750 1323 0
1326 -1327 0
1328 1326 0
1327 -1328 -1326 0
754 -1326 0
-754 1326 0
1329 -1330 0
1331 1329 0
1330 -1331 -1329 0
758 -1329 0
-758 1329 0
1332 -1333 0
1334 1332 0
1333 -1334 -1332 0
762 -1332 0
-762 1332 0
1335 -1336 0
1337 1335 0
1336 -1337 -1335 0
766 -1335 0
-766 1335 0
1338 -1339 0
1340 1338 0
1339 -1340 -1338 0
771 -1338 0
-771 1338 0
-776 0
779 0
782 0
-785 0
-788 0
-791 0
-794 0
-797 0
-800 0
-803 0
-806 0
-809 0
812 0
-815 0
818 0
-821 0
-824 0
-827 0
-830 0
833 0
836 0
839 0
842 0
845 0
848 0
851 0
854 0
-857 0
-860 0
-863 0
866 0
-869 0
-872 0
-875 0
-878 0
-881 0
884 0
887 0
890 0
893 0
-896 0
-899 0
-902 0
-905 0
908 0
-911 0
914 0
917 0
-920 0
-923 0
926 0
-929 0
-932 0
935 0
938 0
-941 0
944 0
-947 0
-950 0
-953 0
-956 0
959 0
962 0
-965 0
-968 0
971 0
-974 0
977 0
-980 0
983 0
986 0
-989 0
-992 0
995 0
998 0
-1001 0
-1004 0
1007 0
1010 0
1013 0
1016 0
1019 0
-1022 0
-1025 0
-1028 0
1031 0
1034 0
1037 0
-1040 0
1043 0
-1046 0
-1049 0
-1052 0
1055 0
-1058 0
1061 0
1064 0
1067 0
1070 0
-1073 0
1076 0
-1079 0
-1082 0
-1085 0
-1088 0
1091 0
-1094 0
1097 0
1100 0
1103 0
-1106 0
-1109 0
-1112 0
-1115 0
1118 0
-1121 0
-1124 0
-1127 0
1130 0
1133 0
1136 0
1139 0
-1142 0
1145 0
1148 0
-1151 0
1154 0
1157 0
1160 0
-1163 0
-1166 0
1169 0
-1172 0
1175 0
1178 0
-1181 0
1184 0
-1187 0
-1190 0
-1193 0
1196 0
-1199 0
1202 0
1205 0
1208 0
-1211 0
-1214 0
1217 0
-1220 0
-1223 0
1226 0
-1229 0
1232 0
-1235 0
-1238 0
1241 0
1244 0
1247 0
1250 0
-1253 0
1256 0
-1259 0
1262 0
1265 0
-1268 0
-1271 0
-1274 0
-1277 0
1280 0
1283 0
1286 0
1289 0
1292 0
1295 0
-1298 0
-1301 0
1304 0
-1307 0
-1310 0
1313 0
1316 0
-1319 0
1322 0
1325 0
-1328 0
1331 0
-1334 0
1337 0
1340 0
4 0
33 0
78 0
119 0
133 0
174 0
211 0
256 0
293 0
338 0
-379 0
-416 0
-461 0
-506 0
-539 0
-564 0
-609 0
-650 0
-699 0
-740 0
886 -925 0
925 -886 0
889 -913 0
913 -889 0
892 -916 0
916 -892 0
895 -919 0
919 -895 0
898 -922 0
922 -898 0
